NAME : portgen-16-6
COMMENT : portgen N=16, seed=6
TYPE : TSP
DIMENSION : 16
EDGE_WEIGHT_TYPE : EUC_2D
NODE_COORD_SECTION
1 408254 874445
2 323414 221874
3 181362 910628
4 105789 683792
5 682747 524449
6 914679 705071
7 823257 647814
8 929527 111187
9 983450 801863
10 235855 40939
11 114943 748954
12 21508 577430
13 546242 592557
14 856071 72019
15 230455 722642
16 731338 161603
